benchmarks_vrp/CMT11/fixed_c_size/CMT11_2.vrp
NAME: CMT11_2
TYPE: CVRP
COMMENT: 1042.11 - Cluster Nr.2
DIMENSION: 16
CAPACITY: 200
EDGE_WEIGHT_TYPE: EUC_2D
NODE_COORD_TYPE: TWOD_COORDS
NODE_COORD_SECTION: 
7 10 45
10 86 41
1 89 46
4 85 55
11 92 52
16 92 42
15 99 50
3 86 46
14 89 43
5 96 42
13 89 52
6 94 42
2 86 44
9 94 48
8 99 46
12 94 44
DEPOT_SECTION: 
7
-1
DEMAND_SECTION: 
4 17
14 20
7 0
3 12
16 10
8 4
13 16
11 9
6 11
5 5
10 18
12 7
9 13
15 21
2 14
1 14
EOF
