benchmarks_vrp/CMT11/fixed_c_size/CMT11_2.tour
NAME: CMT11_2 solution
TYPE: TOUR
TOUR_SECTION:
7 4 13 11 9 15 8 12 5 6 16 14 1 3 2 10 -1
-1
EOF